
Gurobi 11.0.3 (linux64) logging started Sat Nov 23 20:58:25 2024

Set parameter LogFile to value "/home/yihong/Coding/OR_SUC/SUC_results_bigM100000_thread4/case24_ieee_rts_theta0.1_epsilon0.025_gurobi_seed320000_num_gen100_N_WDR150_load_scaling_factor1_proposed_T24quadra_cost.txt"
Set parameter TimeLimit to value 3600
Gurobi Optimizer version 11.0.3 build v11.0.3rc0 (linux64 - "Ubuntu 20.04.6 LTS")

CPU model: AMD EPYC 7532 32-Core Processor, instruction set [SSE2|AVX|AVX2]
Thread count: 64 physical cores, 128 logical processors, using up to 4 threads

Optimize a model with 53864 rows, 29911 columns and 911262 nonzeros
Model fingerprint: 0x778b4b9f
Model has 2400 quadratic constraints
Variable types: 27511 continuous, 2400 integer (2400 binary)
Coefficient statistics:
  Matrix range     [3e-04, 2e+03]
  QMatrix range    [2e-03, 8e-03]
  QLMatrix range   [3e-02, 6e+01]
  Objective range  [1e+00, 1e+00]
  Bounds range     [1e+00, 1e+00]
  RHS range        [1e+00, 9e+03]
Presolve removed 43766 rows and 12814 columns
Presolve time: 0.29s
Presolved: 10098 rows, 17097 columns, 54789 nonzeros
Presolved model has 2400 quadratic constraint(s)
Variable types: 14697 continuous, 2400 integer (2400 binary)

Root relaxation: objective 4.194491e+04, 8086 iterations, 0.20 seconds (0.29 work units)

    Nodes    |    Current Node    |     Objective Bounds      |     Work
 Expl Unexpl |  Obj  Depth IntInf | Incumbent    BestBd   Gap | It/Node Time

     0     0 41944.9136    0   24          - 41944.9136      -     -    0s
     0     0 340781.837    0  762          - 340781.837      -     -    1s
     0     0 374349.309    0  741          - 374349.309      -     -    1s
     0     0 648017.917    0  752          - 648017.917      -     -    1s
     0     0 648060.405    0  477          - 648060.405      -     -    1s
     0     0 648247.187    0  394          - 648247.187      -     -    1s
     0     0 648249.739    0  394          - 648249.739      -     -    1s
     0     0 648249.739    0  394          - 648249.739      -     -    1s
     0     0 648249.739    0  394          - 648249.739      -     -    1s
     0     2 648250.716    0  394          - 648250.716      -     -    2s
H  619   368                    648531.17385 648264.635  0.04%  32.2    4s
*  619   368             211    648531.17385 648264.635  0.04%  32.2    4s

Cutting planes:
  Gomory: 6
  Implied bound: 268
  MIR: 51
  Flow cover: 129
  RLT: 1

Explored 645 nodes (43208 simplex iterations) in 5.25 seconds (6.99 work units)
Thread count was 4 (of 128 available processors)

Solution count 2: 648531 648531 

Optimal solution found (tolerance 1.00e-03)
Warning: max constraint violation (3.4345e-07) exceeds tolerance
Best objective 6.485311738558e+05, best bound 6.482646345820e+05, gap 0.0411%
